% Prueba extensa del modelo de tutorías: 30 estudiantes, 60 solicitudes

NEstudiantes = 30;
NProfesores = 10;
NFranjas = 10;
NAsignaturas = 5;
NSolicitudes = 60;

% disponibilidad_est[e,t]
disponibilidad_est = array2d(1..30, 1..10, [
  true, true, true, false, true, true, false, true, true, false,
  true, true, false, true, true, true, false, true, true, false,
  true, true, false, true, true, false, true, true, true, false,
  true, true, false, true, true, false, true, true, false, true,
  true, false, true, true, true, false, true, true, false, true,
  true, false, true, true, false, true, true, true, false, true,
  true, false, true, true, false, true, true, false, true, true,
  false, true, true, true, false, true, true, false, true, true,
  false, true, true, false, true, true, true, false, true, true,
  false, true, true, false, true, true, false, true, true, true,

  true, true, true, false, true, true, false, true, true, false,
  true, true, false, true, true, true, false, true, true, false,
  true, true, false, true, true, false, true, true, true, false,
  true, true, false, true, true, false, true, true, false, true,
  true, false, true, true, true, false, true, true, false, true,
  true, false, true, true, false, true, true, true, false, true,
  true, false, true, true, false, true, true, false, true, true,
  false, true, true, true, false, true, true, false, true, true,
  false, true, true, false, true, true, true, false, true, true,
  false, true, true, false, true, true, false, true, true, true,

  true, true, true, false, true, true, false, true, true, false,
  true, true, false, true, true, true, false, true, true, false,
  true, true, false, true, true, false, true, true, true, false,
  true, true, false, true, true, false, true, true, false, true,
  true, false, true, true, true, false, true, true, false, true,
  true, false, true, true, false, true, true, true, false, true,
  true, false, true, true, false, true, true, false, true, true,
  false, true, true, true, false, true, true, false, true, true,
  false, true, true, false, true, true, true, false, true, true,
  false, true, true, false, true, true, false, true, true, true
]);

% disponibilidad_prof[p,t]
disponibilidad_prof = array2d(1..10, 1..10, [
  true, true, true, true, false, true, true, false, true, true,
  true, true, true, true, true, true, false, true, true, false,
  true, false, true, true, true, true, true, true, false, true,
  false, true, true, false, true, true, true, true, true, true,
  true, true, false, true, true, false, true, true, true, true,
  true, true, true, true, false, true, true, false, true, true,
  true, true, true, true, true, true, false, true, true, false,
  true, false, true, true, true, true, true, true, false, true,
  false, true, true, false, true, true, true, true, true, true,
  true, true, false, true, true, false, true, true, true, true
]);

% profesor_asignatura[p,a]
profesor_asignatura = array2d(1..10, 1..5, [
  true, true, false, false, false,
  false, true, true, false, false,
  false, false, true, true, false,
  false, false, false, true, true,
  true, false, false, false, true,
  true, false, true, false, false,
  false, true, false, true, false,
  false, false, true, false, true,
  true, false, false, true, false,
  false, true, false, false, true
]);

% estudiante_solicitud[s]
estudiante_solicitud = [
  1, 1,
  2, 2,
  3, 3,
  4, 4,
  5, 5,
  6, 6,
  7, 7,
  8, 8,
  9, 9,
  10, 10,
  11, 11,
  12, 12,
  13, 13,
  14, 14,
  15, 15,
  16, 16,
  17, 17,
  18, 18,
  19, 19,
  20, 20,
  21, 21,
  22, 22,
  23, 23,
  24, 24,
  25, 25,
  26, 26,
  27, 27,
  28, 28,
  29, 29,
  30, 30
];

% asignatura_solicitud[s]
asignatura_solicitud = [
  1, 3,
  3, 5,
  5, 2,
  2, 4,
  4, 1,
  1, 3,
  3, 5,
  5, 2,
  2, 4,
  4, 1,
  1, 3,
  3, 5,
  5, 2,
  2, 4,
  4, 1,
  1, 3,
  3, 5,
  5, 2,
  2, 4,
  4, 1,
  1, 3,
  3, 5,
  5, 2,
  2, 4,
  4, 1,
  1, 3,
  3, 5,
  5, 2,
  2, 4,
  4, 1
];

% preferencia[s,t]: 0 = no deseada, 1 = aceptable, 2 = preferida
preferencia = array2d(1..60, 1..10, [
  2, 1, 1, 0, 2, 1, 0, 2, 1, 0,
  0, 2, 1, 0, 2, 2, 0, 0, 2, 0,
  2, 1, 0, 2, 1, 0, 0, 1, 1, 0,
  2, 2, 0, 0, 2, 1, 0, 2, 1, 0,
  1, 0, 0, 1, 1, 0, 2, 1, 0, 0,
  1, 2, 0, 1, 0, 0, 1, 0, 2, 0,
  2, 1, 0, 2, 1, 0, 2, 2, 0, 0,
  0, 2, 0, 0, 2, 0, 1, 2, 0, 1,
  1, 0, 2, 2, 1, 0, 2, 1, 0, 2,
  1, 0, 2, 1, 0, 0, 1, 1, 0, 2,
  2, 0, 1, 2, 0, 1, 0, 2, 0, 0,
  0, 0, 1, 1, 0, 2, 1, 0, 0, 1,
  2, 0, 0, 2, 0, 0, 2, 0, 1, 2,
  2, 0, 1, 0, 0, 1, 0, 0, 1, 1,
  0, 0, 2, 1, 0, 2, 2, 0, 0, 2,
  0, 2, 2, 1, 0, 2, 1, 0, 2, 1,
  0, 1, 0, 0, 1, 1, 2, 0, 1, 0,
  0, 2, 1, 0, 2, 1, 1, 0, 2, 1,
  0, 1, 2, 0, 1, 0, 0, 1, 0, 2,
  0, 0, 2, 0, 0, 2, 0, 1, 2, 2,

  2, 1, 1, 0, 2, 1, 0, 2, 1, 0,
  0, 2, 1, 0, 2, 2, 0, 0, 2, 0,
  2, 1, 0, 2, 1, 0, 0, 1, 1, 0,
  2, 2, 0, 0, 2, 1, 0, 2, 1, 0,
  1, 0, 0, 1, 1, 0, 2, 1, 0, 0,
  1, 2, 0, 1, 0, 0, 1, 0, 2, 0,
  2, 1, 0, 2, 1, 0, 2, 2, 0, 0,
  0, 2, 0, 0, 2, 0, 1, 2, 0, 1,
  1, 0, 2, 2, 1, 0, 2, 1, 0, 2,
  1, 0, 2, 1, 0, 0, 1, 1, 0, 2,
  2, 0, 1, 2, 0, 1, 0, 2, 0, 0,
  0, 0, 1, 1, 0, 2, 1, 0, 0, 1,
  2, 0, 0, 2, 0, 0, 2, 0, 1, 2,
  2, 0, 1, 0, 0, 1, 0, 0, 1, 1,
  0, 0, 2, 1, 0, 2, 2, 0, 0, 2,
  0, 2, 2, 1, 0, 2, 1, 0, 2, 1,
  0, 1, 0, 0, 1, 1, 2, 0, 1, 0,
  0, 2, 1, 0, 2, 1, 1, 0, 2, 1,
  0, 1, 2, 0, 1, 0, 0, 1, 0, 2,
  0, 0, 2, 0, 0, 2, 0, 1, 2, 2,

  2, 1, 1, 0, 2, 1, 0, 2, 1, 0,
  0, 2, 1, 0, 2, 2, 0, 0, 2, 0,
  2, 1, 0, 2, 1, 0, 0, 1, 1, 0,
  2, 2, 0, 0, 2, 1, 0, 2, 1, 0,
  1, 0, 0, 1, 1, 0, 2, 1, 0, 0,
  1, 2, 0, 1, 0, 0, 1, 0, 2, 0,
  2, 1, 0, 2, 1, 0, 2, 2, 0, 0,
  0, 2, 0, 0, 2, 0, 1, 2, 0, 1,
  1, 0, 2, 2, 1, 0, 2, 1, 0, 2,
  1, 0, 2, 1, 0, 0, 1, 1, 0, 2,
  2, 0, 1, 2, 0, 1, 0, 2, 0, 0,
  0, 0, 1, 1, 0, 2, 1, 0, 0, 1,
  2, 0, 0, 2, 0, 0, 2, 0, 1, 2,
  2, 0, 1, 0, 0, 1, 0, 0, 1, 1,
  0, 0, 2, 1, 0, 2, 2, 0, 0, 2,
  0, 2, 2, 1, 0, 2, 1, 0, 2, 1,
  0, 1, 0, 0, 1, 1, 2, 0, 1, 0,
  0, 2, 1, 0, 2, 1, 1, 0, 2, 1,
  0, 1, 2, 0, 1, 0, 0, 1, 0, 2,
  0, 0, 2, 0, 0, 2, 0, 1, 2, 2
]);

% máximo de tutorías por profesor
max_tutorias_prof = [6, 6, 6, 6, 6, 6, 6, 6, 6, 6];